32      4       
10      10      10      10      
0       0       0       0       0       1       2       
10      1       0       1       1       1       3       
7       3       0       5       4       1       4       
8       5       1       0       4       1       5       
5       7       5       5       0       1       6       
8       0       2       4       7       1       7       
7       2       4       4       0       1       8       
6       3       1       3       0       1       9       
4       9       7       2       0       1       10      
5       5       3       0       4       1       11      
9       6       0       4       3       2       12      15      
1       3       2       2       0       1       13      
8       1       5       5       0       2       14      17      
5       2       0       4       3       1       16      
1       0       2       3       5       1       16      
5       5       2       0       6       1       18      
1       5       0       5       6       1       18      
4       5       3       0       3       1       19      
5       5       6       2       0       1       20      
3       0       4       7       4       2       21      22      
10      6       0       4       3       2       23      26      
10      2       0       5       5       2       25      26      
1       4       5       0       1       1       24      
10      1       7       0       4       1       25      
4       0       6       5       5       2       27      28      
8       3       0       6       3       2       27      28      
9       4       5       3       0       2       29      31      
7       7       4       0       5       2       29      31      
2       0       4       6       4       1       30      
2       4       0       5       4       1       32      
5       2       6       2       0       1       32      
0       0       0       0       0       0       
